Optimal - objective value 354.63000000
      7 x0_8                   1                   46.49
      8 x0_9                   1                    17.1
     22 x1_11                  1                       0
     30 x2_7                   1                       0
     47 x3_12                  1         7.70999999999999
     48 x4_0                   1                   21.76
     65 x5_6                   1                   39.82
     73 x6_1                   1                       0
     84 x7_0                   1                   32.96
    101 x8_5                   1                  -39.82
    111 x9_3                   1                       0
    122 x10_2                  1                       0
    136 x11_4                  1                       0
    154 x12_10                 1                   10.58
    156 u1                    22                       0
    157 u2                    21                       0
    158 u3                     9                       0
    159 u4                    30                       0
    160 u5                    15                       0
    161 u6                    19                       0
    162 u7                    24                       0
    163 u8                    10                       0
    164 u9                     3                       0
    165 u10                   19                       0
    166 u11                   24                       0
    167 u12                   11                       0
